
  32    4
  10   10   10   10

   0   0   0   0   0   4 2 3 4 6 
   4   1   1   0   1   3 9 7 5 
   7   5   4   1   0   2 7 5 
   4   5   0   3   5   3 13 9 8 
   3   0   5   5   4   3 13 10 8 
  10   2   0   3   7   2 10 8 
  10   3   4   3   0   3 13 12 10 
   2   4   0   4   3   2 12 11 
   6   0   5   7   5   2 15 10 
   4   7   5   3   0   3 19 16 14 
   6   4   3   0   3   2 16 14 
   8   2   7   5   0   4 20 19 16 15 
   3   0   3   4   2   4 20 18 16 15 
   3   6   5   0   4   3 20 18 17 
   9   0   4   4   1   5 31 30 26 23 22 
  10   0   4   5   3   4 31 25 23 21 
   5   4   0   5   8   4 31 25 23 21 
  10   4   2   0   3   3 31 22 21 
   2   0   6   3   4   5 31 30 27 26 22 
   4   0   1   3   4   5 31 30 26 25 24 
   5   4   6   4   0   4 30 27 26 24 
   4   5   2   4   0   2 25 24 
   5   3   0   6   6   2 29 27 
   9   5   2   5   0   1 29 
   8   2   8   0   5   1 28 
   9   1   0   3   5   1 28 
   1   0   4   7   5   1 28 
   9   0   4   2   2   1 32
  10   9   3   0   4   1 32
   7   4   5   0   6   1 32
   8   0   3   3   2   1 32
   0   0   0   0   0   0 
